(set-logic QF_S)
(declare-fun var0 () Bool)
(declare-fun var1 () String)
(declare-fun var2 () String)
(declare-fun var3 () Int)
(declare-fun var4 () Int)
(declare-fun var5 () String)
(declare-fun var6 () String)
(declare-fun var7 () Int)
(declare-fun var8 () Int)
(assert (not var0))
(assert (not (str.in.re var1 re.allchar)))
(assert (str.prefixof (str.substr var2 var3 var4) (str.replace "" "[52S""dA" var5)))
(assert (str.in.re (str.substr var6 var7 var8) (re.+ re.allchar)))
(check-sat)